
GUB cover cuts applied:  2
Cover cuts applied:  151
Flow cuts applied:  5
Mixed integer rounding cuts applied:  62
Zero-half cuts applied:  1074
Lift and project cuts applied:  30
Gomory fractional cuts applied:  11

Root node processing (before b&c):
  Real time             =   12.79 sec. (8960.10 ticks)
Parallel b&c, 4 threads:
  Real time             =  267.85 sec. (178914.68 ticks)
  Sync time (average)   =   12.41 sec.
  Wait time (average)   =    0.01 sec.
                          ------------
Total (root+branch&cut) =  280.64 sec. (187874.79 ticks)
Version identifier: 12.10.0.0 | 2019-11-26 | 843d4de
CPXPARAM_MIP_Interval                            10
CPXPARAM_MIP_Tolerances_AbsMIPGap                0.98999999999999999
Tried aggregator 2 times.
MIP Presolve eliminated 43614 rows and 43674 columns.
MIP Presolve modified 1 coefficients.
Aggregator did 98 substitutions.
Reduced MIP has 5421 rows, 4216 columns, and 16822 nonzeros.
Reduced MIP has 4216 binaries, 0 generals, 0 SOSs, and 0 indicators.
Presolve time = 0.06 sec. (59.30 ticks)
Probing fixed 38 vars, tightened 0 bounds.
Probing changed sense of 80 constraints.
Probing time = 0.01 sec. (6.70 ticks)
Tried aggregator 2 times.
Detecting symmetries...
MIP Presolve eliminated 285 rows and 207 columns.
Aggregator did 37 substitutions.
Reduced MIP has 5099 rows, 3972 columns, and 15814 nonzeros.
Reduced MIP has 3972 binaries, 0 generals, 0 SOSs, and 0 indicators.
Presolve time = 0.03 sec. (25.42 ticks)
Probing time = 0.01 sec. (5.62 ticks)
Clique table members: 11210.
MIP emphasis: balance optimality and feasibility.
MIP search method: dynamic search.
Parallel mode: deterministic, using up to 4 threads.
Root relaxation solution time = 0.04 sec. (43.03 ticks)

        Nodes                                         Cuts/
   Node  Left     Objective  IInf  Best Integer    Best Bound    ItCnt     Gap

      0     0       24.5000   364                     24.5000      718         
      0     0       23.8333   364                    Cuts: 92     1172         
      0     0       23.5000   364                   Cuts: 104     1572         
*     0+    0                           15.0000       23.5000            56.67%
      0     0       23.5000   364       15.0000     Cuts: 164     1896   56.67%
*     0+    0                           18.0000       23.5000            30.56%
*     0+    0                           19.0000       23.5000            23.68%
      0     0        cutoff             19.0000       23.5000     1896   23.68%
      0     0       23.4444   364       19.0000      Cuts: 63     2189   23.39%
      0     0       23.3333   364       19.0000     Cuts: 254     2713   22.81%
Detecting symmetries...
*     0+    0                           20.0000       23.3333            16.67%
      0     0       23.3333   364       20.0000     Cuts: 148     2988   16.67%
*     0+    0                           21.0000       23.3333            11.11%
Detecting symmetries...
      0     2       23.3333   211       21.0000       23.3333     2988   11.11%
Elapsed time = 1.68 sec. (1325.00 ticks, tree = 0.02 MB, solutions = 5)
     10     7       23.3065   740       21.0000       23.3333     5820   11.11%
     20    19       22.0833   279       21.0000       23.3333    15821   11.11%
     30    24       22.9231   309       21.0000       23.3333    18280   11.11%
     40    27       22.1161   645       21.0000       23.3333    19048   11.11%
     50    32       23.1244   830       21.0000       23.3333    23754   11.11%
     60    39       22.0718   243       21.0000       23.3333    26361   11.11%
     70    44       22.0389   233       21.0000       23.3333    28339   11.11%
     80    47       22.0000   621       21.0000       23.3333    32237   11.11%
     90    53       22.8750   351       21.0000       23.3333    36185   11.11%
*    95    45      integral     0       22.0000       23.3333    36857    6.06%
    100    24        cutoff             22.0000       23.3333    41829    6.06%
Elapsed time = 3.96 sec. (2539.73 ticks, tree = 0.06 MB, solutions = 6)
    110    22        cutoff             22.0000       23.2395    42595    5.63%
the number of Nodes = 118
